Version identifier: 22.1.1.0 | 2022-11-28 | 9160aff4d
CPXPARAM_ClockType                               1
CPXPARAM_Read_DataCheck                          1
CPXPARAM_Threads                                 1
CPXPARAM_TimeLimit                               7200
CPXPARAM_MIP_Tolerances_AbsMIPGap                0
CPXPARAM_MIP_Tolerances_MIPGap                   0
CPXPARAM_MIP_Tolerances_Integrality              0
Tried aggregator 2 times.
MIP Presolve eliminated 3023 rows and 1 columns.
MIP Presolve modified 1042 coefficients.
Aggregator did 500 substitutions.
Reduced MIP has 5176 rows, 2499 columns, and 15914 nonzeros.
Reduced MIP has 2499 binaries, 0 generals, 0 SOSs, and 0 indicators.
Presolve time = 0.03 sec. (21.00 ticks)
Found incumbent of value 158.000000 after 0.07 sec. (43.24 ticks)
Probing time = 0.01 sec. (3.99 ticks)
Tried aggregator 1 time.
Detecting symmetries...
MIP Presolve eliminated 201 rows and 3 columns.
MIP Presolve modified 2 coefficients.
Reduced MIP has 4975 rows, 2496 columns, and 14907 nonzeros.
Reduced MIP has 2496 binaries, 0 generals, 0 SOSs, and 0 indicators.
Presolve time = 0.03 sec. (16.20 ticks)
Probing time = 0.01 sec. (2.68 ticks)
Clique table members: 4594.
MIP emphasis: balance optimality and feasibility.
MIP search method: dynamic search.
Parallel mode: none, using 1 thread.
Root relaxation solution time = 0.20 sec. (144.11 ticks)

        Nodes                                         Cuts/
   Node  Left     Objective  IInf  Best Integer    Best Bound    ItCnt     Gap

*     0+    0                          158.0000      500.0000           216.46%
      0     0      500.0000   965      158.0000      500.0000     1037  216.46%
      0     0      287.0000   980      158.0000    Cuts: 1343     4696   81.65%
      0     0      200.0000  1145      158.0000     Cuts: 546     5444   26.58%
      0     0      200.0000  1176      158.0000     Cuts: 114     6062   26.58%
*     0+    0                          170.0000      200.0000            17.65%
      0     0        cutoff            170.0000      200.0000     6062   17.65%
      0     0      200.0000   548      170.0000   ZeroHalf: 1     6065   17.65%
*     0+    0                          174.0000      200.0000            14.94%
      0     0      200.0000  1007      174.0000      Cuts: 98     6314   14.94%
Detecting symmetries...
*     0+    0                          184.0000      200.0000             8.70%
*     0+    0                          200.0000      200.0000             0.00%
      0     0        cutoff            200.0000      200.0000     6314    0.00%
Elapsed time = 4.68 sec. (3031.80 ticks, tree = 0.01 MB, solutions = 5)

GUB cover cuts applied:  12
Clique cuts applied:  6
Cover cuts applied:  970
Mixed integer rounding cuts applied:  10
Zero-half cuts applied:  116
Gomory fractional cuts applied:  191

Root node processing (before b&c):
  Real time             =    4.68 sec. (3032.00 ticks)
Sequential b&c:
  Real time             =    0.00 sec. (0.00 ticks)
                          ------------
Total (root+branch&cut) =    4.68 sec. (3032.00 ticks)
Solution is feasible.

---------------------
@@@ MIP_optimal
>>> Benchmark sw100-6.cnf k 2 OPT 200 TimeCost 5.302930593490601 TimeSolve 4.734546184539795 TimeRead 0.007414102554321289 TimeTrans 0.5609703063964844
